162 5
10 10 10 10 10 

0 0 0 0 0 0 1 2 
0 0 0 0 0 0 3 3 5 12 
7 0 0 0 0 1 4 11 10 7 4 
2 0 0 0 0 3 3 9 8 6 
10 0 0 0 0 3 2 7 6 
8 0 0 0 0 2 1 13 
5 0 0 0 0 3 1 13 
2 0 0 0 0 2 1 13 
1 0 0 0 0 2 1 13 
10 0 0 0 0 2 1 13 
2 0 0 0 0 3 1 13 
2 0 0 0 0 4 1 13 
0 0 0 0 0 0 1 14 
0 0 0 0 0 0 5 15 16 18 23 24 
5 0 0 1 0 0 2 22 17 
6 0 0 4 0 0 2 21 17 
4 0 0 3 0 0 2 20 19 
4 0 0 2 0 0 1 19 
1 0 0 5 0 0 1 25 
3 0 0 1 0 0 1 25 
5 0 0 1 0 0 1 25 
3 0 0 1 0 0 1 25 
3 0 0 3 0 0 1 25 
9 0 0 4 0 0 1 25 
0 0 0 0 0 0 1 26 
0 0 0 0 0 0 5 27 28 29 32 36 
10 0 0 0 0 1 2 31 30 
9 0 0 0 0 4 2 33 30 
9 0 0 0 0 5 2 35 33 
3 0 0 0 0 3 1 34 
1 0 0 0 0 2 1 33 
9 0 0 0 0 3 1 33 
10 0 0 0 0 1 1 37 
6 0 0 0 0 3 1 37 
5 0 0 0 0 1 1 37 
9 0 0 0 0 2 1 37 
0 0 0 0 0 0 5 38 60 82 104 126 
0 0 0 0 0 0 6 39 40 41 43 44 47 
9 0 1 0 1 0 3 52 46 42 
1 0 2 0 4 0 4 58 57 46 45 
9 0 1 0 2 0 4 57 51 46 45 
10 0 3 0 3 0 5 58 57 49 45 148 
6 0 1 0 3 0 3 57 49 45 
2 0 3 0 1 0 2 57 46 
3 0 5 0 2 0 4 56 53 50 48 
6 0 1 0 1 0 4 56 53 49 48 
2 0 1 0 3 0 3 58 57 51 
4 0 1 0 2 0 1 54 
7 0 3 0 3 0 1 55 
10 0 4 0 4 0 1 55 
1 0 3 0 3 0 1 53 
7 0 2 0 2 0 1 54 
3 0 3 0 1 0 1 59 
10 0 3 0 5 0 1 59 
6 0 3 0 1 0 1 59 
5 0 3 0 3 0 1 59 
8 0 5 0 3 0 1 59 
5 0 2 0 3 0 1 59 
0 0 0 0 0 0 1 162 
0 0 0 0 0 0 6 61 63 64 67 68 72 
6 0 1 0 1 0 2 71 62 
7 0 5 0 2 0 3 80 69 65 
2 0 2 0 1 0 2 71 65 
10 0 2 0 1 0 2 73 66 
1 0 2 0 1 0 4 79 76 74 70 
8 0 6 0 2 0 4 80 79 77 69 
6 0 2 0 3 0 3 78 71 69 
3 0 2 0 3 0 2 73 69 
2 0 3 0 3 0 4 76 75 74 151 
5 0 2 0 3 0 3 78 77 75 
4 0 2 0 1 0 2 75 73 
3 0 4 0 4 0 2 80 74 
6 0 4 0 5 0 1 74 
2 0 2 0 4 0 1 81 
3 0 2 0 2 0 1 81 
1 0 2 0 2 0 1 81 
10 0 1 0 3 0 1 81 
7 0 2 0 3 0 1 81 
10 0 2 0 1 0 1 81 
7 0 2 0 5 0 1 81 
0 0 0 0 0 0 1 162 
0 0 0 0 0 0 9 83 84 85 86 90 91 92 93 102 
3 0 1 0 0 1 5 101 100 99 98 89 
7 0 3 0 0 5 4 101 97 96 87 
6 0 3 0 0 2 2 97 88 
5 0 2 0 0 2 2 97 89 
5 0 2 0 0 1 3 99 98 94 
9 0 3 0 0 2 1 89 
2 0 3 0 0 3 2 96 94 
6 0 2 0 0 1 2 98 94 
6 0 3 0 0 4 2 96 94 
6 0 1 0 0 3 2 100 97 
4 0 3 0 0 4 2 94 136 
6 0 4 0 0 3 1 95 
7 0 2 0 0 1 1 103 
8 0 2 0 0 1 1 103 
2 0 2 0 0 2 1 103 
3 0 5 0 0 2 1 103 
6 0 4 0 0 2 1 103 
6 0 1 0 0 3 1 103 
3 0 1 0 0 4 1 103 
4 0 3 0 0 4 1 103 
0 0 0 0 0 0 1 162 
0 0 0 0 0 0 5 105 106 107 108 113 
4 1 0 1 0 0 4 116 115 112 109 
9 2 0 1 0 0 4 116 115 112 109 
6 3 0 2 0 0 4 124 115 112 110 
3 2 0 2 0 0 5 123 116 115 112 111 
5 2 0 4 0 0 3 124 123 111 
2 2 0 2 0 0 2 123 111 
9 4 0 5 0 0 4 121 118 117 114 
10 3 0 2 0 0 4 121 118 117 114 
9 1 0 4 0 0 4 124 123 116 115 
1 1 0 4 0 0 2 122 120 
10 5 0 3 0 0 2 121 119 
3 3 0 1 0 0 2 120 119 
2 3 0 2 0 0 1 119 
5 2 0 1 0 0 1 119 
5 3 0 2 0 0 1 125 
3 3 0 1 0 0 1 125 
3 2 0 4 0 0 1 125 
4 3 0 4 0 0 1 125 
8 2 0 1 0 0 1 125 
6 3 0 4 0 0 1 125 
0 0 0 0 0 0 1 162 
0 0 0 0 0 0 5 127 128 129 130 136 
8 0 0 0 1 0 4 135 134 133 132 
7 0 0 0 3 0 3 134 133 131 
1 0 0 0 2 0 3 134 133 131 
1 0 0 0 1 0 2 133 132 
1 0 0 0 2 0 1 132 
6 0 0 0 2 0 1 137 
5 0 0 0 2 0 1 137 
9 0 0 0 4 0 1 137 
7 0 0 0 4 0 1 137 
1 0 0 0 4 0 1 137 
0 0 0 0 0 0 2 138 150 
0 0 0 0 0 0 4 139 140 141 148 
6 0 1 0 0 0 5 147 146 144 143 142 
1 0 3 0 0 0 4 146 144 143 142 
9 0 2 0 0 0 2 146 142 
7 0 2 0 0 0 1 145 
2 0 1 0 0 0 1 145 
9 0 4 0 0 0 1 145 
6 0 3 0 0 0 1 149 
1 0 2 0 0 0 1 149 
2 0 6 0 0 0 1 149 
6 0 1 0 0 0 1 149 
0 0 0 0 0 0 1 162 
0 0 0 0 0 0 5 151 152 154 159 160 
1 1 0 0 0 0 4 158 157 156 155 
9 4 0 0 0 0 1 153 
4 4 0 0 0 0 3 157 156 155 
3 3 0 0 0 0 2 158 155 
9 1 0 0 0 0 1 161 
3 4 0 0 0 0 1 161 
2 1 0 0 0 0 1 161 
8 3 0 0 0 0 1 161 
2 2 0 0 0 0 1 161 
4 2 0 0 0 0 1 161 
0 0 0 0 0 0 1 162 
0 0 0 0 0 0 0 
